Welcome to the CBC MILP Solver
Version: 2.10.3
Build Date: Dec 15 2019

command line - <USER_HOME>\AppData\Local\Programs\Python\Python312\Lib\site-packages\pulp\apis\../solverdir/cbc/win/i64/cbc.exe cloud_edge_device_dag_scheduling-pulp.mps -mips cloud_edge_device_dag_scheduling-pulp.mst -sec 300.0 -presolve on -gomory on knapsack on probing on -timeMode elapsed -solve -printingOptions all -solution cloud_edge_device_dag_scheduling-pulp.sol (default strategy 1)
At line 2 NAME          MODEL
At line 3 ROWS
At line 441 COLUMNS
At line 4015 RHS
At line 4452 BOUNDS
At line 4624 ENDATA
Problem MODEL has 436 rows, 171 columns and 3252 elements
Coin0008I MODEL read with 0 errors
opening mipstart file .\cloud_edge_device_dag_scheduling-pulp.mst.
MIPStart values read for 171 variables.
seconds was changed from 1e+100 to 300
Option for gomoryCuts changed from ifmove to on
Option for knapsackCuts changed from ifmove to on
Option for timeMode changed from cpu to elapsed
Continuous objective value is 0.0994127 - 0.00 seconds
Cgl0003I 6 fixed, 0 tightened bounds, 242 strengthened rows, 0 substitutions
Cgl0003I 0 fixed, 0 tightened bounds, 146 strengthened rows, 0 substitutions
Cgl0003I 0 fixed, 0 tightened bounds, 146 strengthened rows, 0 substitutions
Cgl0003I 0 fixed, 0 tightened bounds, 69 strengthened rows, 0 substitutions
Cgl0003I 0 fixed, 0 tightened bounds, 33 strengthened rows, 0 substitutions
Cgl0003I 0 fixed, 0 tightened bounds, 17 strengthened rows, 0 substitutions
Cgl0003I 0 fixed, 0 tightened bounds, 9 strengthened rows, 0 substitutions
Cgl0004I processed model has 290 rows, 111 columns (100 integer (100 of which binary)) and 2306 elements
Cbc0045I MIPStart provided solution with cost 0.357532
Cbc0012I Integer solution of 0.3575318 found by Reduced search after 0 iterations and 0 nodes (0.03 seconds)
Cbc0038I Full problem 290 rows 111 columns, reduced to 202 rows 69 columns - too large
Cbc0031I 19 added rows had average density of 10.210526
Cbc0013I At root node, 19 cuts changed objective from 0.11936713 to 0.26653295 in 70 passes
Cbc0014I Cut generator 0 (Probing) - 612 row cuts average 7.2 elements, 2 column cuts (2 active)  in 0.027 seconds - new frequency is 1
Cbc0014I Cut generator 1 (Gomory) - 870 row cuts average 21.0 elements, 0 column cuts (0 active)  in 0.006 seconds - new frequency is 1
Cbc0014I Cut generator 2 (Knapsack) - 14 row cuts average 3.1 elements, 0 column cuts (0 active)  in 0.025 seconds - new frequency is 2
Cbc0014I Cut generator 3 (Clique) - 0 row cuts average 0.0 elements, 0 column cuts (0 active)  in 0.000 seconds - new frequency is -100
Cbc0014I Cut generator 4 (MixedIntegerRounding2) - 257 row cuts average 4.2 elements, 0 column cuts (0 active)  in 0.028 seconds - new frequency is 1
Cbc0014I Cut generator 5 (FlowCover) - 7 row cuts average 2.3 elements, 0 column cuts (0 active)  in 0.024 seconds - new frequency is -100
Cbc0014I Cut generator 6 (TwoMirCuts) - 433 row cuts average 7.9 elements, 0 column cuts (0 active)  in 0.012 seconds - new frequency is 1
Cbc0010I After 0 nodes, 1 on tree, 0.3575318 best solution, best possible 0.26653295 (0.29 seconds)
Cbc0012I Integer solution of 0.35654454 found by DiveCoefficient after 3550 iterations and 32 nodes (0.40 seconds)
Cbc0001I Search completed - best objective 0.3565445400978002, took 3698 iterations and 37 nodes (0.41 seconds)
Cbc0032I Strong branching done 370 times (3220 iterations), fathomed 2 nodes and fixed 1 variables
Cbc0035I Maximum depth 9, 1 variables fixed on reduced cost
Cuts at root node changed objective from 0.119367 to 0.266533
Probing was tried 135 times and created 1024 cuts of which 0 were active after adding rounds of cuts (0.032 seconds)
Gomory was tried 122 times and created 1074 cuts of which 0 were active after adding rounds of cuts (0.009 seconds)
Knapsack was tried 97 times and created 15 cuts of which 0 were active after adding rounds of cuts (0.026 seconds)
Clique was tried 70 times and created 0 cuts of which 0 were active after adding rounds of cuts (0.000 seconds)
MixedIntegerRounding2 was tried 122 times and created 335 cuts of which 0 were active after adding rounds of cuts (0.039 seconds)
FlowCover was tried 70 times and created 7 cuts of which 0 were active after adding rounds of cuts (0.024 seconds)
TwoMirCuts was tried 122 times and created 568 cuts of which 0 were active after adding rounds of cuts (0.016 seconds)
ZeroHalf was tried 1 times and created 0 cuts of which 0 were active after adding rounds of cuts (0.000 seconds)

Result - Optimal solution found

Objective value:                0.35654454
Enumerated nodes:               37
Total iterations:               3698
Time (CPU seconds):             0.42
Time (Wallclock seconds):       0.42

Option for printingOptions changed from normal to all
Total time (CPU seconds):       0.45   (Wallclock seconds):       0.45
